
Log started (V12.10.0.0) Fri Apr  2 11:23:35 2021

Warning, line 708: Name 's131' does not exist.
Warning, line 709: Name 's210' does not exist.
Warning, line 710: Name 's208' does not exist.
Warning, line 711: Name 's83' does not exist.
Warning, line 713: Name 's181' does not exist.
Warning, line 714: Name 's253' does not exist.
Warning, line 715: Name 's299' does not exist.
Warning, line 716: Name 's37' does not exist.
Warning, line 717: Name 's7' does not exist.
Warning, line 718: Name 's78' does not exist.
Warning, line 736: Name 's86' does not exist.

Problem 'asset.lp' read.
Read time = 0.00 sec. (0.05 ticks)
New value for default parallel thread count: 1
New value for time limit in seconds: 400
Version identifier: 12.10.0.0 | 2019-11-26 | 843d4de
CPXPARAM_Threads                                 1
CPXPARAM_TimeLimit                               400
Found incumbent of value 0.000000 after 0.00 sec. (0.02 ticks)
Tried aggregator 4 times.
MIP Presolve eliminated 448 rows and 402 columns.
MIP Presolve modified 381 coefficients.
Aggregator did 32 substitutions.
Reduced MIP has 23 rows, 30 columns, and 89 nonzeros.
Reduced MIP has 22 binaries, 8 generals, 0 SOSs, and 0 indicators.
Presolve time = 0.00 sec. (0.92 ticks)
Probing fixed 1 vars, tightened 2 bounds.
Probing time = 0.00 sec. (0.02 ticks)
Tried aggregator 1 time.
MIP Presolve eliminated 15 rows and 7 columns.
Reduced MIP has 8 rows, 21 columns, and 38 nonzeros.
Reduced MIP has 18 binaries, 3 generals, 0 SOSs, and 0 indicators.
Presolve time = 0.00 sec. (0.05 ticks)
Probing time = 0.00 sec. (0.01 ticks)
Tried aggregator 1 time.
Detecting symmetries...
Reduced MIP has 8 rows, 21 columns, and 38 nonzeros.
Reduced MIP has 18 binaries, 3 generals, 0 SOSs, and 0 indicators.
Presolve time = 0.00 sec. (0.03 ticks)
Probing time = 0.00 sec. (0.01 ticks)
Clique table members: 13.
MIP emphasis: balance optimality and feasibility.
MIP search method: dynamic search.
Parallel mode: none, using 1 thread.
Root relaxation solution time = 0.00 sec. (0.02 ticks)

        Nodes                                         Cuts/
   Node  Left     Objective  IInf  Best Integer    Best Bound    ItCnt     Gap

*     0+    0                            6.0000       26.0000           333.33%
      0     0       15.0000     1        6.0000       15.0000        8  150.00%
*     0+    0                           14.0000       15.0000             7.14%
      0     0        cutoff             14.0000       15.0000        8    7.14%
Elapsed time = 0.00 sec. (1.22 ticks, tree = 0.01 MB, solutions = 2)

Root node processing (before b&c):
  Real time             =    0.00 sec. (1.24 ticks)
Sequential b&c:
  Real time             =    0.00 sec. (0.00 ticks)
                          ------------
Total (root+branch&cut) =    0.00 sec. (1.24 ticks)

Solution pool: 3 solutions saved.

MIP - Integer optimal solution:  Objective =  1.4000000000e+01
Solution time =    0.00 sec.  Iterations = 8  Nodes = 0
Deterministic time = 1.24 ticks  (388.54 ticks/sec)


Incumbent solution
Variable Name           Solution Value
F                            14.000000
y75                           1.000000
y235                          1.000000
y128                          1.000000
x172x235x1                    1.000000
x172x235x2                    1.000000
x125x75x3                     1.000000
x125x128x3                    1.000000
x26x75x3                      1.000000
x55x128x3                     1.000000
x75x0x3                       2.000000
x235x0x1                      1.000000
x235x0x2                      1.000000
x128x0x3                      2.000000
s172                          8.247850
s235                          9.345922
z172z235z1                    1.000000
z172z235z2                    1.000000
s205                          9.390000
s141                          9.450000
z172z141z2                    1.000000
s125                          7.787080
s288                          8.190000
s91                           8.240000
s95                           8.240000
s75                           9.250000
z125z75z3                     1.000000
s129                          8.260000
s292                          9.280000
s201                          8.290000
s221                          8.290000
s280                          8.300000
s46                           9.330000
s99                           9.330000
z125z99z3                     1.000000
s162                          8.340000
s128                          9.470000
z125z128z3                    1.000000
s229                          9.480000
s40                           9.500000
s175                          9.500000
s26                           7.810070
s51                           8.180000
z26z75z3                      1.000000
z26z128z3                     1.000000
s160                          7.815830
s153                          8.170000
z160z128z3                    1.000000
s55                           7.830860
z55z128z3                     1.000000
s11                           9.400000
s145                          9.440000
s195                          8.200000
s98                           8.230000
s168                          8.250000
All other variables in the range 1-466 are 0.
